n = 50;
C = 287;
w = [97,104,87,358,316,56,163,375,345,393,463,266,499,133,374,473,383,261,312,34,331,493,285,106,370,151,331,284,465,33,10,106,493,239,476,95,244,428,453,461,420,480,297,117,250,142,485,285,191,346];
p = [97,104,87,358,316,56,163,375,345,393,463,266,499,133,374,473,383,261,312,34,331,493,285,106,370,151,331,284,465,33,10,106,493,239,476,95,244,428,453,461,420,480,297,117,250,142,485,285,191,346];
